bacp/01/params/inst-57-1-570235764.param
language Essence 1.3
$ generated by bacp-gen.pl with seed 570235764
$ edge probability 0.3458
$ course loads in range 2..6
letting n_courses be 62
letting n_periods be 30
letting load_per_period_lb be 7
letting load_per_period_ub be 42
letting courses_per_period_lb be 2
letting courses_per_period_ub be 8
letting course_load be function(
1 --> 4,
2 --> 5,
3 --> 3,
4 --> 5,
5 --> 3,
6 --> 6,
7 --> 2,
8 --> 6,
9 --> 6,
10 --> 6,
11 --> 4,
12 --> 5,
13 --> 5,
14 --> 3,
15 --> 5,
16 --> 2,
17 --> 4,
18 --> 6,
19 --> 4,
20 --> 3,
21 --> 2,
22 --> 5,
23 --> 5,
24 --> 3,
25 --> 5,
26 --> 3,
27 --> 5,
28 --> 4,
29 --> 3,
30 --> 3,
31 --> 2,
32 --> 4,
33 --> 3,
34 --> 2,
35 --> 2,
36 --> 4,
37 --> 4,
38 --> 5,
39 --> 3,
40 --> 4,
41 --> 4,
42 --> 4,
43 --> 3,
44 --> 4,
45 --> 5,
46 --> 4,
47 --> 2,
48 --> 5,
49 --> 3,
50 --> 6,
51 --> 4,
52 --> 2,
53 --> 2,
54 --> 2,
55 --> 5,
56 --> 2,
57 --> 4,
58 --> 3,
59 --> 4,
60 --> 2,
61 --> 4,
62 --> 5
)
letting prerequisite be relation (
(20,22),
(7,23),
(3,24),
(17,25),
(13,26),
(14,27),
(17,28),
(9,29),
(15,30),
(9,31),
(13,32),
(1,33),
(14,34),
(12,35),
(4,36),
(19,37),
(9,38),
(10,39),
(20,40),
(18,41),
(14,42),
(17,43),
(9,44),
(21,45),
(9,46),
(3,47),
(11,48),
(39,49),
(43,50),
(48,51),
(41,52),
(22,53),
(44,54),
(46,55),
(41,56),
(47,57),
(37,58),
(37,59),
(39,60),
(28,61),
(38,62),
(2,39),
(44,52),
(16,40),
(5,30),
(17,39),
(18,35),
(5,48),
(16,43),
(11,40),
(10,26),
(9,41),
(13,48),
(29,60),
(11,23),
(42,59),
(1,43),
(48,53),
(27,58),
(19,36),
(43,49),
(31,54),
(26,57),
(14,31),
(18,27),
(20,31),
(7,43),
(47,49),
(28,52),
(3,46),
(38,59),
(34,54),
(5,22),
(11,28),
(43,58),
(34,50),
(19,32),
(10,28),
(7,25),
(5,41),
(19,46),
(16,44),
(1,37),
(41,58),
(24,56),
(16,24),
(12,38),
(2,32),
(16,47),
(22,61),
(45,58),
(13,25),
(11,29),
(15,36),
(44,56),
(14,48),
(11,39),
(1,31),
(33,51),
(40,56),
(26,59),
(35,62),
(47,56),
(9,42),
(12,32),
(10,38),
(24,59),
(11,32),
(3,37),
(23,51),
(5,44),
(30,54),
(13,43),
(45,60),
(8,38),
(48,55),
(2,38),
(20,47),
(4,44),
(46,53),
(3,41),
(5,29),
(15,32),
(35,52),
(17,47),
(45,59),
(21,35),
(28,60),
(8,31),
(45,50),
(36,52),
(4,30),
(38,52),
(8,34),
(41,53),
(5,45),
(31,52),
(3,34),
(9,22),
(32,53),
(39,52),
(4,45),
(9,45),
(47,60),
(9,30),
(48,49),
(6,35),
(33,59),
(33,57),
(9,36),
(39,59),
(11,34),
(41,54),
(43,57),
(15,42),
(26,61),
(22,54),
(10,43),
(37,53),
(2,23),
(25,61),
(14,41),
(42,55),
(48,62),
(9,23),
(47,54),
(8,35),
(25,52),
(11,35),
(32,58),
(26,58),
(11,31),
(39,54),
(31,56),
(19,35),
(39,56),
(29,57),
(30,56),
(6,47),
(23,60),
(19,33),
(10,47),
(6,22),
(21,26),
(4,38),
(26,53),
(11,22),
(36,60),
(16,28),
(45,62),
(26,55),
(28,55),
(31,51),
(22,50),
(15,41),
(24,49),
(26,51),
(4,43),
(12,48),
(13,33),
(7,47),
(45,54),
(24,61),
(20,29),
(12,47),
(24,55),
(45,55),
(15,24),
(6,26),
(11,43),
(14,37),
(14,46),
(9,28),
(27,49),
(9,37),
(4,41),
(47,53),
(34,62),
(5,28),
(30,51),
(44,50),
(11,33),
(10,24),
(31,49),
(3,42),
(33,53),
(1,44),
(17,23),
(8,33),
(7,42),
(36,54),
(11,27),
(35,56),
(17,26),
(21,23),
(21,27),
(3,28),
(7,28),
(6,37),
(29,49),
(35,50),
(21,33),
(9,39),
(10,46),
(29,53),
(3,44),
(35,54),
(25,60),
(48,60),
(40,58),
(13,40),
(17,27),
(7,48),
(20,39),
(40,53),
(26,54),
(13,36),
(41,59),
(28,62),
(2,46),
(17,34),
(8,29),
(4,40),
(43,55),
(5,40),
(33,61),
(13,39),
(36,55),
(27,56),
(34,52),
(47,55),
(42,54),
(25,58),
(17,48),
(48,58),
(48,59),
(34,57),
(19,48),
(17,31),
(12,40),
(8,48),
(28,56),
(19,29),
(19,22),
(31,55),
(30,58),
(4,48),
(27,59),
(6,41),
(27,57),
(15,22),
(1,48),
(40,59),
(36,62),
(31,57),
(33,56),
(18,34),
(5,33),
(7,34),
(8,30),
(10,30),
(17,22),
(12,24),
(18,28),
(42,61),
(35,51),
(37,57),
(46,49),
(35,61),
(13,45),
(40,52),
(38,58),
(8,47),
(48,56),
(14,38),
(21,40),
(39,53),
(27,60),
(19,23),
(26,62),
(37,54),
(22,52),
(7,41),
(29,52),
(48,61),
(43,52)
)

