bacp/param_dec/inst-57-1-570235764.eprime-param
language ESSENCE' 1.0

letting n_courses be 62
letting n_periods be 30
letting prerequisite_RelationAsSet_Explicit_1 be
        [1, 1, 1, 1, 1, 1, 2, 2, 2, 2, 2, 3, 3, 3, 3, 3, 3, 3, 3, 3, 4, 4, 4, 4, 4, 4, 4, 4, 4, 5, 5, 5, 5, 5, 5, 5, 5,
         5, 5, 6, 6, 6, 6, 6, 6, 7, 7, 7, 7, 7, 7, 7, 7, 7, 8, 8, 8, 8, 8, 8, 8, 8, 8, 9, 9, 9, 9, 9, 9, 9, 9, 9, 9, 9,
         9, 9, 9, 9, 10, 10, 10, 10, 10, 10, 10, 10, 10, 11, 11, 11, 11, 11, 11, 11, 11, 11, 11, 11, 11, 11, 11, 12, 12,
         12, 12, 12, 12, 12, 13, 13, 13, 13, 13, 13, 13, 13, 13, 13, 14, 14, 14, 14, 14, 14, 14, 14, 14, 15, 15, 15, 15,
         15, 15, 15, 16, 16, 16, 16, 16, 16, 17, 17, 17, 17, 17, 17, 17, 17, 17, 17, 17, 17, 18, 18, 18, 18, 18, 19, 19,
         19, 19, 19, 19, 19, 19, 19, 19, 20, 20, 20, 20, 20, 20, 21, 21, 21, 21, 21, 21, 21, 22, 22, 22, 22, 22, 23, 23,
         24, 24, 24, 24, 24, 25, 25, 25, 25, 26, 26, 26, 26, 26, 26, 26, 26, 26, 27, 27, 27, 27, 27, 27, 28, 28, 28, 28,
         28, 28, 29, 29, 29, 29, 29, 30, 30, 30, 30, 31, 31, 31, 31, 31, 31, 31, 32, 32, 33, 33, 33, 33, 33, 33, 34, 34,
         34, 34, 34, 35, 35, 35, 35, 35, 35, 35, 36, 36, 36, 36, 36, 37, 37, 37, 37, 37, 38, 38, 38, 38, 39, 39, 39, 39,
         39, 39, 39, 40, 40, 40, 40, 40, 41, 41, 41, 41, 41, 41, 42, 42, 42, 42, 43, 43, 43, 43, 43, 43, 44, 44, 44, 44,
         45, 45, 45, 45, 45, 45, 45, 46, 46, 46, 47, 47, 47, 47, 47, 47, 47, 48, 48, 48, 48, 48, 48, 48, 48, 48, 48;
             int(1..326)]
letting prerequisite_RelationAsSet_Explicit_2 be
        [31, 33, 37, 43, 44, 48, 23, 32, 38, 39, 46, 24, 28, 34, 37, 41, 42, 44, 46, 47, 30, 36, 38, 40, 41, 43, 44, 45,
         48, 22, 28, 29, 30, 33, 40, 41, 44, 45, 48, 22, 26, 35, 37, 41, 47, 23, 25, 28, 34, 41, 42, 43, 47, 48, 29, 30,
         31, 33, 34, 35, 38, 47, 48, 22, 23, 28, 29, 30, 31, 36, 37, 38, 39, 41, 42, 44, 45, 46, 24, 26, 28, 30, 38, 39,
         43, 46, 47, 22, 23, 27, 28, 29, 31, 32, 33, 34, 35, 39, 40, 43, 48, 24, 32, 35, 38, 40, 47, 48, 25, 26, 32, 33,
         36, 39, 40, 43, 45, 48, 27, 31, 34, 37, 38, 41, 42, 46, 48, 22, 24, 30, 32, 36, 41, 42, 24, 28, 40, 43, 44, 47,
         22, 23, 25, 26, 27, 28, 31, 34, 39, 43, 47, 48, 27, 28, 34, 35, 41, 22, 23, 29, 32, 33, 35, 36, 37, 46, 48, 22,
         29, 31, 39, 40, 47, 23, 26, 27, 33, 35, 40, 45, 50, 52, 53, 54, 61, 51, 60, 49, 55, 56, 59, 61, 52, 58, 60, 61,
         51, 53, 54, 55, 57, 58, 59, 61, 62, 49, 56, 57, 58, 59, 60, 52, 55, 56, 60, 61, 62, 49, 52, 53, 57, 60, 51, 54,
         56, 58, 49, 51, 52, 54, 55, 56, 57, 53, 58, 51, 53, 56, 57, 59, 61, 50, 52, 54, 57, 62, 50, 51, 52, 54, 56, 61,
         62, 52, 54, 55, 60, 62, 53, 54, 57, 58, 59, 52, 58, 59, 62, 49, 52, 53, 54, 56, 59, 60, 52, 53, 56, 58, 59, 52,
         53, 54, 56, 58, 59, 54, 55, 59, 61, 49, 50, 52, 55, 57, 58, 50, 52, 54, 56, 50, 54, 55, 58, 59, 60, 62, 49, 53,
         55, 49, 53, 54, 55, 56, 57, 60, 49, 51, 53, 55, 56, 58, 59, 60, 61, 62;
             int(1..326)]
letting course_load_Function1D be
        [4, 5, 3, 5, 3, 6, 2, 6, 6, 6, 4, 5, 5, 3, 5, 2, 4, 6, 4, 3, 2, 5, 5, 3, 5, 3, 5, 4, 3, 3, 2, 4, 3, 2, 2, 4, 4,
         5, 3, 4, 4, 4, 3, 4, 5, 4, 2, 5, 3, 6, 4, 2, 2, 2, 5, 2, 4, 3, 4, 2, 4, 5;
             int(1..62)]
letting load_per_period_ub be 42
letting load_per_period_lb be 7
letting courses_per_period_ub be 8
letting courses_per_period_lb be 2
letting fin1 be 326
letting fin2 be 62
letting fin3 be 6
